Reading model...
...model read.
creating competitive generators file...
...competitive generators recorded.
Loading data...
.. real-time data read.
Compiling instance...
600.0
50.0
166.08466800000002
13.840389000000002
...instance created.
Creating Offer Mitigation (model will solve as dispatch if TRUE)...
...storage offer mitigation file created
Converting model to MPEC...
...converted
NOTE: initial MIP solve with only storage competitive to get feasible solution
Solving...

Welcome to IBM(R) ILOG(R) CPLEX(R) Interactive Optimizer 12.9.0.0
  with Simplex, Mixed Integer & Barrier Optimizers
5725-A06 5725-A29 5724-Y48 5724-Y49 5724-Y54 5724-Y55 5655-Y21
Copyright IBM Corp. 1988, 2019.  All Rights Reserved.

Type 'help' for a list of available commands.
Type 'help' followed by a command name for more
information on commands.

CPLEX> Logfile 'cplex.log' closed.
Logfile 'C:\Users\llavin\Desktop\test826\logs\tmpquvd4ehp.cplex.log' open.
CPLEX> New value for parallel optimization mode: -1
CPLEX> New value for mixed integer optimality gap tolerance: 0.01
CPLEX> New value for emphasis for MIP optimization: 1
CPLEX> New value for integrality tolerance: 1e-12
CPLEX> New value for deterministic time limit in ticks: 500000
CPLEX> Problem 'C:\Users\llavin\Desktop\test826\logs\tmpx7nk1leq.pyomo.lp' read.
Read time = 0.55 sec. (28.51 ticks)
CPLEX> Problem name         : C:\Users\llavin\Desktop\test826\logs\tmpx7nk1leq.pyomo.lp
Objective sense      : Maximize
Variables            :  107783  [Nneg: 1,  Box: 44058,  Free: 8928,
                                 Binary: 54796]
Objective nonzeros   :   17379
Linear constraints   :  246901  [Less: 82864,  Greater: 118424,  Equal: 45613]
  Nonzeros           :  618173
  RHS nonzeros       :  134883

Variables            : Min LB: -5000.000        Max UB: 1000000.       
Objective nonzeros   : Min   : 0.01666667       Max   : 208.3333       
Linear constraints   :
  Nonzeros           : Min   : 0.01666667       Max   : 1000000.       
  RHS nonzeros       : Min   : 0.01666667       Max   : 1000000.       
CPLEX> CPXPARAM_Parallel                                -1
CPXPARAM_Emphasis_MIP                            1
CPXPARAM_DetTimeLimit                            500000
CPXPARAM_MIP_Tolerances_MIPGap                   0.01
CPXPARAM_MIP_Tolerances_Integrality              9.9999999999999998e-13
Tried aggregator 3 times.
MIP Presolve eliminated 181793 rows and 41716 columns.
MIP Presolve added 6048 rows and 0 columns.
MIP Presolve modified 51148 coefficients.
Aggregator did 25865 substitutions.
Reduced MIP has 45291 rows, 38570 columns, and 136125 nonzeros.
Reduced MIP has 15189 binaries, 0 generals, 0 SOSs, and 0 indicators.
Presolve time = 0.64 sec. (376.45 ticks)
Probing fixed 791 vars, tightened 9266 bounds.
Probing time = 0.38 sec. (13.98 ticks)
Tried aggregator 2 times.
MIP Presolve eliminated 1776 rows and 1632 columns.
MIP Presolve modified 10508 coefficients.
Aggregator did 86 substitutions.
Reduced MIP has 43429 rows, 36852 columns, and 130683 nonzeros.
Reduced MIP has 14397 binaries, 0 generals, 0 SOSs, and 0 indicators.
Presolve time = 0.23 sec. (207.46 ticks)
Probing fixed 1 vars, tightened 4090 bounds.
Probing time = 0.45 sec. (16.82 ticks)
Clique table members: 69212.
MIP emphasis: integer feasibility.
MIP search method: dynamic search.
Parallel mode: opportunistic, using up to 32 threads.
Root relaxation solution time = 1.14 sec. (1801.57 ticks)

        Nodes                                         Cuts/
   Node  Left     Objective  IInf  Best Integer    Best Bound    ItCnt     Gap

      0     0     2117.1474   624                   2117.1474     7468         
      0     0     2117.1497     5                 Flowcuts: 2     7470         
      0     0     2117.1497     5                     Cuts: 5     7476         
*     0+    0                         2053.0415     2117.1474             3.12%
      0     0     2117.1497     5     2053.0415   Flowcuts: 3     7479    3.12%
      0     6        cutoff           2053.0415   Impl Bds: 2     7519    3.12%
Elapsed time = 7.41 sec. (3959.56 ticks, tree = 0.02 MB, solutions = 1)
    294    77     2117.0882     5     2053.0415     2117.0586     9774    3.12%
    645   106        cutoff           2053.0415     2117.0586     8855    3.12%
    835    75     2117.0935     6     2053.0415     2117.0586     9734    3.12%
    916   127     2117.0882     6     2053.0415     2117.0586    11347    3.12%

Cover cuts applied:  1
Implied bound cuts applied:  4
Flow cuts applied:  7
Mixed integer rounding cuts applied:  2

Root node processing (before b&c):
  Real time             =    5.11 sec. (3934.53 ticks)
Parallel b&c, 32 threads:
  Real time             =    5.48 sec. (1135.88 ticks)
  Sync time (average)   =    2.74 sec.
  Wait time (average)   =    0.00 sec.
                          ------------
Total (root+branch&cut) =   10.59 sec. (5070.41 ticks)

Solution pool: 1 solution saved.

MIP - Integer optimal, tolerance (0.01/1e-06):  Objective =  2.0530415000e+03
Current MIP best bound =  2.0576642855e+03 (gap = 4.62279, 0.23%)
Solution time =   10.61 sec.  Iterations = 18346  Nodes = 929 (132)
Deterministic time = 5070.72 ticks  (477.92 ticks/sec)

CPLEX> Incumbent solution written to file 'C:\Users\llavin\Desktop\test826\logs\tmpoq38r81k.cplex.sol'.
CPLEX> NOTE: no warmstart specified for MIP iteration, default behavior is true
NOTE: resolving with all competitive generators using storage-only solution to warmstart
Solving...

Welcome to IBM(R) ILOG(R) CPLEX(R) Interactive Optimizer 12.9.0.0
  with Simplex, Mixed Integer & Barrier Optimizers
5725-A06 5725-A29 5724-Y48 5724-Y49 5724-Y54 5724-Y55 5655-Y21
Copyright IBM Corp. 1988, 2019.  All Rights Reserved.

Type 'help' for a list of available commands.
Type 'help' followed by a command name for more
information on commands.

CPLEX> Logfile 'cplex.log' closed.
Logfile 'C:\Users\llavin\Desktop\test826\logs\tmpco2poh26.cplex.log' open.
CPLEX> New value for parallel optimization mode: -1
CPLEX> New value for mixed integer optimality gap tolerance: 0.01
CPLEX> New value for emphasis for MIP optimization: 1
CPLEX> New value for integrality tolerance: 1e-12
CPLEX> New value for deterministic time limit in ticks: 500000
CPLEX> Problem 'C:\Users\llavin\Desktop\test826\logs\tmp4rw4yc7w.pyomo.lp' read.
Read time = 0.51 sec. (28.56 ticks)
CPLEX> MIP start file 'C:\Users\llavin\Desktop\test826\logs\tmpxpvn6o8s.cplex.mst' read.
CPLEX> Problem name         : C:\Users\llavin\Desktop\test826\logs\tmp4rw4yc7w.pyomo.lp
Objective sense      : Maximize
Variables            :  109223  [Nneg: 1,  Box: 45498,  Free: 8928,
                                 Binary: 54796]
Objective nonzeros   :   18771
Linear constraints   :  246901  [Less: 82864,  Greater: 118424,  Equal: 45613]
  Nonzeros           :  618173
  RHS nonzeros       :  134883

Variables            : Min LB: -5000.000        Max UB: 1000000.       
Objective nonzeros   : Min   : 0.01666667       Max   : 208.3333       
Linear constraints   :
  Nonzeros           : Min   : 0.01666667       Max   : 1000000.       
  RHS nonzeros       : Min   : 0.01666667       Max   : 1000000.       
CPLEX> CPXPARAM_Parallel                                -1
CPXPARAM_Emphasis_MIP                            1
CPXPARAM_DetTimeLimit                            500000
CPXPARAM_MIP_Tolerances_MIPGap                   0.01
CPXPARAM_MIP_Tolerances_Integrality              9.9999999999999998e-13
Warning:  No solution found from 1 MIP starts.
Retaining values of one MIP start for possible repair.
Tried aggregator 3 times.
MIP Presolve eliminated 181793 rows and 43156 columns.
MIP Presolve added 6048 rows and 0 columns.
MIP Presolve modified 51148 coefficients.
Aggregator did 25865 substitutions.
Reduced MIP has 45291 rows, 38570 columns, and 136125 nonzeros.
Reduced MIP has 15189 binaries, 0 generals, 0 SOSs, and 0 indicators.
Presolve time = 0.63 sec. (377.16 ticks)
Probing fixed 791 vars, tightened 9266 bounds.
Probing time = 0.36 sec. (13.98 ticks)
Tried aggregator 2 times.
MIP Presolve eliminated 1776 rows and 1632 columns.
MIP Presolve modified 10508 coefficients.
Aggregator did 86 substitutions.
Reduced MIP has 43429 rows, 36852 columns, and 130683 nonzeros.
Reduced MIP has 14397 binaries, 0 generals, 0 SOSs, and 0 indicators.
Presolve time = 0.23 sec. (207.19 ticks)
Probing fixed 1 vars, tightened 4090 bounds.
Probing time = 0.41 sec. (16.82 ticks)
Clique table members: 69212.
MIP emphasis: integer feasibility.
MIP search method: dynamic search.
Parallel mode: opportunistic, using up to 32 threads.
Root relaxation solution time = 0.88 sec. (543.04 ticks)

        Nodes                                         Cuts/
   Node  Left     Objective  IInf  Best Integer    Best Bound    ItCnt     Gap

      0     0    34289.9733   771                  34289.9733       31         
      0     0    34288.7674   167                   Cuts: 192      158         
      0     0    34288.1038   170                   Cuts: 118      225         
      0     0    34288.1038   170                Flowcuts: 53      235         
Repair heuristic found nothing.
      0     3    34286.1510   169                  34287.8774      239         
Elapsed time = 6.81 sec. (3423.69 ticks, tree = 0.02 MB, solutions = 0)
    596   187    34274.2895   157                  34281.7678      774         
   1188   539    34264.8048   144                  34281.3537     1552         
   1807  1019    34263.1125   126                  34281.3537     2586         
   2366  2201    34262.2979   108                  34281.3537     5190         
   2797  1999    34254.7510    94                  34281.3537     4669         
   3194  2429    34230.3299    99                  34281.3537     6334         
   3627  2971    34246.8845    80                  34281.3537    10309         
   4104  3383    34223.0942    70                  34281.3537    12865         
   4618  3763    34222.7421    91                  34281.3537    15430         
   6187  6403    34275.5534   157                  34281.3537    50483         
Elapsed time = 28.81 sec. (6526.41 ticks, tree = 87.45 MB, solutions = 0)
   7716  6452    32159.1431   161                  34281.3537    51482         
*  8046  6276      integral     0    34083.1917    34281.3537    49102    0.58%

Implied bound cuts applied:  2
Flow cuts applied:  228
Mixed integer rounding cuts applied:  2

Root node processing (before b&c):
  Real time             =    5.14 sec. (3398.75 ticks)
Parallel b&c, 32 threads:
  Real time             =   29.22 sec. (5064.74 ticks)
  Sync time (average)   =    0.35 sec.
  Wait time (average)   =    0.00 sec.
                          ------------
Total (root+branch&cut) =   34.36 sec. (8463.49 ticks)

Solution pool: 1 solution saved.

MIP - Integer optimal, tolerance (0.01/1e-06):  Objective =  3.4083191713e+04
Current MIP best bound =  3.4281353672e+04 (gap = 198.162, 0.58%)
Solution time =   34.39 sec.  Iterations = 89866  Nodes = 8683 (7379)
Deterministic time = 8463.80 ticks  (246.11 ticks/sec)

CPLEX> Incumbent solution written to file 'C:\Users\llavin\Desktop\test826\logs\tmpk7v6vnzn.cplex.sol'.
CPLEX> Exporting results... 
